%chk=xyz2.chk
# opt b3lyp/6-31g(d) geom=connectivity

Title Card Required

-1 1
 C-CT                 0.33516484   -0.31868131    0.00000000
 H-HC                 0.69181926   -1.32749132    0.00000000
 H-HC                 0.69183768    0.18571688   -0.87365150
 C-CT                -1.20483516   -0.31866234    0.00000000
 O-O2                -1.85323008    0.65971133    0.56191697
 O-O2                -1.85327385   -1.29700790   -0.56191540
 C-CT                 0.84850706    0.40727496    1.25740497
 H-HC                 1.90427540    0.25921820    1.34868697
 H-HC                 0.64091625    1.45369196    1.17483675
 H-HC                 0.35700218    0.01331267    2.12234235
 C-CT                -4.76993034   -1.10053421    2.83346601
 C-CT                -6.30993034   -1.10053421    2.83346601
 H-HC                -6.66659669   -0.22688284    3.33786902
 H-HC                -6.66659720   -1.97418550    3.33786881
 C-CT                -6.82326322   -1.10053440    1.38153992
 H-HC                -6.60342969   -2.04319815    0.92551549
 H-HC                -7.88119472   -0.94033848    1.37727305
 H-HC                -6.34183141   -0.31806667    0.83302586
 O-O2                -4.12151353    0.01515734    3.00130429
 H-HC                -3.58289649    0.19242283    2.22666332
 O-O2                -4.12151353   -2.21622577    2.66562773

 1 2 1.0 3 1.0 4 1.0 7 1.0
 2
 3
 4 5 1.5 6 1.5
 5
 6
 7 8 1.0 9 1.0 10 1.0
 8
 9
 10
 11 12 1.0 19 1.5 21 1.5
 12 13 1.0 14 1.0 15 1.0
 13
 14
 15 16 1.0 17 1.0 18 1.0
 16
 17
 18
 19 20 1.0
 20
 21

