--Link1--
%chk=molecule
#HF/6-31G* SCF=tight Test Pop=MK iop(6/33=2) iop(6/42=6) opt iop(6/50=1)

remark line goes here

0   1
    C   -1.0797000000       -0.1671000000        0.0000000000     
    H   -0.7230000000       -1.1759000000        0.0000000000     
    H   -0.7230000000        0.3373000000       -0.8737000000     
    H   -2.1497000000       -0.1671000000        0.0000000000     
    O   -0.6030000000        0.5070000000        1.1676000000     
    H   -0.9228000000        1.4122000000        1.1680000000     

g09.gesp

g09.gesp


